
;this file is automatically generated: Mon Feb 10 17:01:40 CST 2020

;declarations generated

(declare-fun oclExcludes ( Int Int) Bool)
(declare-fun Cardinality ( Int) Int)
(declare-fun oclSelect ( Int Bool) Int)
(declare-fun type_76fe732f_9f4a_499a_8855_d16d1fa50a7e_Class44 ( Int) Bool)
(declare-fun obj_2bdf2636_c887_446a_b899_37f895bc9774 ( Int) Int)
(declare-fun Enum0 ( Int) Int)
(declare-fun Enum1 ( Int) Int)
(declare-fun Enum2 ( Int) Int)
(declare-fun container_ ( Int) Int)
(declare-fun oclIncludes ( Int Int) Bool)
(declare-fun ObjAt ( Int Int) Int)

;formula(s) generated
(assert (forall ((p Int)) (=> ( type_76fe732f_9f4a_499a_8855_d16d1fa50a7e_Class44 p )  (and (>= ( Enum2 ( obj_2bdf2636_c887_446a_b899_37f895bc9774 p )  )  0) (<= ( Enum2 ( obj_2bdf2636_c887_446a_b899_37f895bc9774 p )  )  6)))))
(assert (! (forall ((c1 Int)) (=> ( type_76fe732f_9f4a_499a_8855_d16d1fa50a7e_Class44 c1 )  (= ( Enum2 ( obj_2bdf2636_c887_446a_b899_37f895bc9774 c1 )  )  5))):named l0))
(assert (exists ((o Int)) ( type_76fe732f_9f4a_499a_8855_d16d1fa50a7e_Class44 ( obj_2bdf2636_c887_446a_b899_37f895bc9774 o )  ) ))

 ;end of formula 